(set-logic ALL)
(declare-fun var0 () String)
(assert (str.in_re var0 (re.++ (re.union (re.union (str.to_re "0") (str.to_re "1")) (re.union (str.to_re "22") (str.to_re "3"))) (re.++ (re.union (re.union (str.to_re "44") (str.to_re "5")) (re.union (str.to_re "6") (str.to_re "77"))) (re.++ (re.* (re.union (str.to_re "888") (str.to_re "9"))) (re.++ (re.+ (re.union (str.to_re "aaa") (str.to_re "b"))) (re.++ (re.union (re.* (str.to_re "cc")) (re.* (str.to_re "dd"))) (re.++ (re.* (re.+ (str.to_re "ee"))) (re.++ (re.* (re.+ (str.to_re "ff"))) (re.++ (re.* (re.+ (str.to_re "gg"))) (re.++ (re.+ (re.union (str.to_re "hh") (str.to_re "ii"))) (re.++ (re.+ (re.union (str.to_re "j") (str.to_re "k"))) (re.++ (re.union (re.+ (str.to_re "ll")) (re.+ (str.to_re "mm"))) (re.++ (re.union (re.+ (str.to_re "nnn")) (re.+ (str.to_re "oo"))) (re.++ (re.union (re.+ (str.to_re "pp")) (re.+ (str.to_re "qqq"))) (re.++ (re.union (re.+ (str.to_re "rrr")) (re.+ (str.to_re "s"))) (re.+ (re.+ (str.to_re "t")))))))))))))))))))
(check-sat)